region rFIX block INF INF INF INF INF  5.5
group  gFIX region rFIX

thermo          ${output}
thermo_modify   lost ignore flush yes
thermo_style    custom step temp pe ke vol press

fix             1 gFIX setforce 0 0 0
minimize        1e-8 1e-12 10000 100000

write_data      relaxed.lammps
