pair_coeff         * * e3gnn/parallel ${NMPL} ${POT} H O Si

pair_coeff      1 1     zbl/pair 1 1    0.5249 0.6749
pair_coeff      1 2     zbl/pair 1 8    0.6909 0.8884
pair_coeff      1 3     zbl/pair 1 14   1.0804 1.3891
pair_coeff      2 2     zbl/pair 8 8    0.8631 1.1097
pair_coeff      2 3     zbl/pair 8 14   1.0703 1.3761
pair_coeff      3 3     zbl/pair 14 14  1.5979 2.0544

mass    1 1.0080
mass    2 15.9990
mass    3 28.0850
