Si H  O 
 1.0000000000000000
    21.7199999999999989    0.0000000000000000    0.0000000000000000
     0.0000000000000000   21.7199999999999989    0.0000000000000000
     0.0000000000000000    0.0000000000000000   72.0824999999999960
 Si  H   O  
 1024  64  16
Cartesian
  0.0000000000000000  0.0000000000000000 15.0000000000000000
  1.3574999999999999  1.3574999999999999 16.3575000000000017
  2.7149999999999999  2.7149999999999999 15.0000000000000000
  4.0724999999999998  4.0724999999999998 16.3575000000000017
  0.0000000000000000  2.7149999999999999 17.7149999999999999
  1.3574999999999999  4.0724999999999998 19.0724999999999980
  2.7149999999999999  0.0000000000000000 17.7149999999999999
  4.0724999999999998  1.3574999999999999 19.0724999999999980
  0.0000000000000000  0.0000000000000000 20.4299999999999997
  1.3574999999999999  1.3574999999999999 21.7875000000000014
  2.7149999999999999  2.7149999999999999 20.4299999999999997
  4.0724999999999998  4.0724999999999998 21.7875000000000014
  0.0000000000000000  2.7149999999999999 23.1449999999999996
  1.3574999999999999  4.0724999999999998 24.5024999999999977
  2.7149999999999999  0.0000000000000000 23.1449999999999996
  4.0724999999999998  1.3574999999999999 24.5024999999999977
  0.0000000000000000  0.0000000000000000 25.8599999999999994
  1.3574999999999999  1.3574999999999999 27.2175000000000011
  2.7149999999999999  2.7149999999999999 25.8599999999999994
  4.0724999999999998  4.0724999999999998 27.2175000000000011
  0.0000000000000000  2.7149999999999999 28.5749999999999993
  1.3574999999999999  4.0724999999999998 29.9324999999999974
  2.7149999999999999  0.0000000000000000 28.5749999999999993
  4.0724999999999998  1.3574999999999999 29.9324999999999974
  0.0000000000000000  0.0000000000000000 31.2899999999999991
  1.3574999999999999  1.3574999999999999 32.6475000000000009
  2.7149999999999999  2.7149999999999999 31.2899999999999991
  4.0724999999999998  4.0724999999999998 32.6475000000000009
  0.0000000000000000  2.7149999999999999 34.0049999999999955
  1.3574999999999999  4.0724999999999998 35.3624999999999972
  2.7149999999999999  0.0000000000000000 34.0049999999999955
  4.0724999999999998  1.3574999999999999 35.3624999999999972
  0.0000000000000000  0.0000000000000000 36.7199999999999989
  1.3574999999999999  1.3574999999999999 38.0775000000000006
  2.7149999999999999  2.7149999999999999 36.7199999999999989
  4.0724999999999998  4.0724999999999998 38.0775000000000006
  0.0000000000000000  2.7149999999999999 39.4350000000000023
  1.3574999999999999  4.0724999999999998 40.7924999999999898
  2.7149999999999999  0.0000000000000000 39.4350000000000023
  4.0724999999999998  1.3574999999999999 40.7924999999999898
  0.0000000000000000  0.0000000000000000 42.1499999999999986
  1.3574999999999999  1.3574999999999999 43.5075000000000003
  2.7149999999999999  2.7149999999999999 42.1499999999999986
  4.0724999999999998  4.0724999999999998 43.5075000000000003
  0.0000000000000000  2.7149999999999999 44.8649999999999949
  1.3574999999999999  4.0724999999999998 46.2224999999999966
  2.7149999999999999  0.0000000000000000 44.8649999999999949
  4.0724999999999998  1.3574999999999999 46.2224999999999966
  0.0000000000000000  0.0000000000000000 47.5799999999999983
  1.3574999999999999  1.3574999999999999 48.9375000000000000
  2.7149999999999999  2.7149999999999999 47.5799999999999983
  4.0724999999999998  4.0724999999999998 48.9375000000000000
  0.0000000000000000  2.7149999999999999 50.2950000000000017
  1.3574999999999999  4.0724999999999998 51.6524999999999963
  2.7149999999999999  0.0000000000000000 50.2950000000000017
  4.0724999999999998  1.3574999999999999 51.6524999999999963
  0.0000000000000000  0.0000000000000000 53.0099999999999980
  1.3574999999999999  1.3574999999999999 54.3674999999999997
  2.7149999999999999  2.7149999999999999 53.0099999999999980
  4.0724999999999998  4.0724999999999998 54.3674999999999997
  0.0000000000000000  2.7149999999999999 55.7249999999999943
  1.9404033307585165  3.4895966692414833 57.4324999999999974
  2.7149999999999999  0.0000000000000000 55.7249999999999943
  3.4895966692414833  1.9404033307585165 56.7324999999999946
  0.0000000000000000  5.4299999999999997 15.0000000000000000
  1.3574999999999999  6.7874999999999996 16.3575000000000017
  2.7149999999999999  8.1449999999999996 15.0000000000000000
  4.0724999999999998  9.5024999999999995 16.3575000000000017
  0.0000000000000000  8.1449999999999996 17.7149999999999999
  1.3574999999999999  9.5024999999999995 19.0724999999999980
  2.7149999999999999  5.4299999999999997 17.7149999999999999
  4.0724999999999998  6.7874999999999996 19.0724999999999980
  0.0000000000000000  5.4299999999999997 20.4299999999999997
  1.3574999999999999  6.7874999999999996 21.7875000000000014
  2.7149999999999999  8.1449999999999996 20.4299999999999997
  4.0724999999999998  9.5024999999999995 21.7875000000000014
  0.0000000000000000  8.1449999999999996 23.1449999999999996
  1.3574999999999999  9.5024999999999995 24.5024999999999977
  2.7149999999999999  5.4299999999999997 23.1449999999999996
  4.0724999999999998  6.7874999999999996 24.5024999999999977
  0.0000000000000000  5.4299999999999997 25.8599999999999994
  1.3574999999999999  6.7874999999999996 27.2175000000000011
  2.7149999999999999  8.1449999999999996 25.8599999999999994
  4.0724999999999998  9.5024999999999995 27.2175000000000011
  0.0000000000000000  8.1449999999999996 28.5749999999999993
  1.3574999999999999  9.5024999999999995 29.9324999999999974
  2.7149999999999999  5.4299999999999997 28.5749999999999993
  4.0724999999999998  6.7874999999999996 29.9324999999999974
  0.0000000000000000  5.4299999999999997 31.2899999999999991
  1.3574999999999999  6.7874999999999996 32.6475000000000009
  2.7149999999999999  8.1449999999999996 31.2899999999999991
  4.0724999999999998  9.5024999999999995 32.6475000000000009
  0.0000000000000000  8.1449999999999996 34.0049999999999955
  1.3574999999999999  9.5024999999999995 35.3624999999999972
  2.7149999999999999  5.4299999999999997 34.0049999999999955
  4.0724999999999998  6.7874999999999996 35.3624999999999972
  0.0000000000000000  5.4299999999999997 36.7199999999999989
  1.3574999999999999  6.7874999999999996 38.0775000000000006
  2.7149999999999999  8.1449999999999996 36.7199999999999989
  4.0724999999999998  9.5024999999999995 38.0775000000000006
  0.0000000000000000  8.1449999999999996 39.4350000000000023
  1.3574999999999999  9.5024999999999995 40.7924999999999898
  2.7149999999999999  5.4299999999999997 39.4350000000000023
  4.0724999999999998  6.7874999999999996 40.7924999999999898
  0.0000000000000000  5.4299999999999997 42.1499999999999986
  1.3574999999999999  6.7874999999999996 43.5075000000000003
  2.7149999999999999  8.1449999999999996 42.1499999999999986
  4.0724999999999998  9.5024999999999995 43.5075000000000003
  0.0000000000000000  8.1449999999999996 44.8649999999999949
  1.3574999999999999  9.5024999999999995 46.2224999999999966
  2.7149999999999999  5.4299999999999997 44.8649999999999949
  4.0724999999999998  6.7874999999999996 46.2224999999999966
  0.0000000000000000  5.4299999999999997 47.5799999999999983
  1.3574999999999999  6.7874999999999996 48.9375000000000000
  2.7149999999999999  8.1449999999999996 47.5799999999999983
  4.0724999999999998  9.5024999999999995 48.9375000000000000
  0.0000000000000000  8.1449999999999996 50.2950000000000017
  1.3574999999999999  9.5024999999999995 51.6524999999999963
  2.7149999999999999  5.4299999999999997 50.2950000000000017
  4.0724999999999998  6.7874999999999996 51.6524999999999963
  0.0000000000000000  5.4299999999999997 53.0099999999999980
  1.3574999999999999  6.7874999999999996 54.3674999999999997
  2.7149999999999999  8.1449999999999996 53.0099999999999980
  4.0724999999999998  9.5024999999999995 54.3674999999999997
  0.0000000000000000  8.1449999999999996 55.7249999999999943
  1.9404033307585165  8.9195966692414821 57.4324999999999974
  2.7149999999999999  5.4299999999999997 55.7249999999999943
  3.4895966692414833  7.3704033307585162 56.7324999999999946
  0.0000000000000000 10.8599999999999994 15.0000000000000000
  1.3574999999999999 12.2174999999999994 16.3575000000000017
  2.7149999999999999 13.5749999999999993 15.0000000000000000
  4.0724999999999998 14.9324999999999992 16.3575000000000017
  0.0000000000000000 13.5749999999999993 17.7149999999999999
  1.3574999999999999 14.9324999999999992 19.0724999999999980
  2.7149999999999999 10.8599999999999994 17.7149999999999999
  4.0724999999999998 12.2174999999999994 19.0724999999999980
  0.0000000000000000 10.8599999999999994 20.4299999999999997
  1.3574999999999999 12.2174999999999994 21.7875000000000014
  2.7149999999999999 13.5749999999999993 20.4299999999999997
  4.0724999999999998 14.9324999999999992 21.7875000000000014
  0.0000000000000000 13.5749999999999993 23.1449999999999996
  1.3574999999999999 14.9324999999999992 24.5024999999999977
  2.7149999999999999 10.8599999999999994 23.1449999999999996
  4.0724999999999998 12.2174999999999994 24.5024999999999977
  0.0000000000000000 10.8599999999999994 25.8599999999999994
  1.3574999999999999 12.2174999999999994 27.2175000000000011
  2.7149999999999999 13.5749999999999993 25.8599999999999994
  4.0724999999999998 14.9324999999999992 27.2175000000000011
  0.0000000000000000 13.5749999999999993 28.5749999999999993
  1.3574999999999999 14.9324999999999992 29.9324999999999974
  2.7149999999999999 10.8599999999999994 28.5749999999999993
  4.0724999999999998 12.2174999999999994 29.9324999999999974
  0.0000000000000000 10.8599999999999994 31.2899999999999991
  1.3574999999999999 12.2174999999999994 32.6475000000000009
  2.7149999999999999 13.5749999999999993 31.2899999999999991
  4.0724999999999998 14.9324999999999992 32.6475000000000009
  0.0000000000000000 13.5749999999999993 34.0049999999999955
  1.3574999999999999 14.9324999999999992 35.3624999999999972
  2.7149999999999999 10.8599999999999994 34.0049999999999955
  4.0724999999999998 12.2174999999999994 35.3624999999999972
  0.0000000000000000 10.8599999999999994 36.7199999999999989
  1.3574999999999999 12.2174999999999994 38.0775000000000006
  2.7149999999999999 13.5749999999999993 36.7199999999999989
  4.0724999999999998 14.9324999999999992 38.0775000000000006
  0.0000000000000000 13.5749999999999993 39.4350000000000023
  1.3574999999999999 14.9324999999999992 40.7924999999999898
  2.7149999999999999 10.8599999999999994 39.4350000000000023
  4.0724999999999998 12.2174999999999994 40.7924999999999898
  0.0000000000000000 10.8599999999999994 42.1499999999999986
  1.3574999999999999 12.2174999999999994 43.5075000000000003
  2.7149999999999999 13.5749999999999993 42.1499999999999986
  4.0724999999999998 14.9324999999999992 43.5075000000000003
  0.0000000000000000 13.5749999999999993 44.8649999999999949
  1.3574999999999999 14.9324999999999992 46.2224999999999966
  2.7149999999999999 10.8599999999999994 44.8649999999999949
  4.0724999999999998 12.2174999999999994 46.2224999999999966
  0.0000000000000000 10.8599999999999994 47.5799999999999983
  1.3574999999999999 12.2174999999999994 48.9375000000000000
  2.7149999999999999 13.5749999999999993 47.5799999999999983
  4.0724999999999998 14.9324999999999992 48.9375000000000000
  0.0000000000000000 13.5749999999999993 50.2950000000000017
  1.3574999999999999 14.9324999999999992 51.6524999999999963
  2.7149999999999999 10.8599999999999994 50.2950000000000017
  4.0724999999999998 12.2174999999999994 51.6524999999999963
  0.0000000000000000 10.8599999999999994 53.0099999999999980
  1.3574999999999999 12.2174999999999994 54.3674999999999997
  2.7149999999999999 13.5749999999999993 53.0099999999999980
  4.0724999999999998 14.9324999999999992 54.3674999999999997
  0.0000000000000000 13.5749999999999993 55.7249999999999943
  1.9404033307585165 14.3495966692414818 57.4324999999999974
  2.7149999999999999 10.8599999999999994 55.7249999999999943
  3.4895966692414833 12.8004033307585168 56.7324999999999946
  0.0000000000000000 16.2899999999999991 15.0000000000000000
  1.3574999999999999 17.6475000000000009 16.3575000000000017
  2.7149999999999999 19.0049999999999990 15.0000000000000000
  4.0724999999999998 20.3624999999999972 16.3575000000000017
  0.0000000000000000 19.0049999999999990 17.7149999999999999
  1.3574999999999999 20.3624999999999972 19.0724999999999980
  2.7149999999999999 16.2899999999999991 17.7149999999999999
  4.0724999999999998 17.6475000000000009 19.0724999999999980
  0.0000000000000000 16.2899999999999991 20.4299999999999997
  1.3574999999999999 17.6475000000000009 21.7875000000000014
  2.7149999999999999 19.0049999999999990 20.4299999999999997
  4.0724999999999998 20.3624999999999972 21.7875000000000014
  0.0000000000000000 19.0049999999999990 23.1449999999999996
  1.3574999999999999 20.3624999999999972 24.5024999999999977
  2.7149999999999999 16.2899999999999991 23.1449999999999996
  4.0724999999999998 17.6475000000000009 24.5024999999999977
  0.0000000000000000 16.2899999999999991 25.8599999999999994
  1.3574999999999999 17.6475000000000009 27.2175000000000011
  2.7149999999999999 19.0049999999999990 25.8599999999999994
  4.0724999999999998 20.3624999999999972 27.2175000000000011
  0.0000000000000000 19.0049999999999990 28.5749999999999993
  1.3574999999999999 20.3624999999999972 29.9324999999999974
  2.7149999999999999 16.2899999999999991 28.5749999999999993
  4.0724999999999998 17.6475000000000009 29.9324999999999974
  0.0000000000000000 16.2899999999999991 31.2899999999999991
  1.3574999999999999 17.6475000000000009 32.6475000000000009
  2.7149999999999999 19.0049999999999990 31.2899999999999991
  4.0724999999999998 20.3624999999999972 32.6475000000000009
  0.0000000000000000 19.0049999999999990 34.0049999999999955
  1.3574999999999999 20.3624999999999972 35.3624999999999972
  2.7149999999999999 16.2899999999999991 34.0049999999999955
  4.0724999999999998 17.6475000000000009 35.3624999999999972
  0.0000000000000000 16.2899999999999991 36.7199999999999989
  1.3574999999999999 17.6475000000000009 38.0775000000000006
  2.7149999999999999 19.0049999999999990 36.7199999999999989
  4.0724999999999998 20.3624999999999972 38.0775000000000006
  0.0000000000000000 19.0049999999999990 39.4350000000000023
  1.3574999999999999 20.3624999999999972 40.7924999999999898
  2.7149999999999999 16.2899999999999991 39.4350000000000023
  4.0724999999999998 17.6475000000000009 40.7924999999999898
  0.0000000000000000 16.2899999999999991 42.1499999999999986
  1.3574999999999999 17.6475000000000009 43.5075000000000003
  2.7149999999999999 19.0049999999999990 42.1499999999999986
  4.0724999999999998 20.3624999999999972 43.5075000000000003
  0.0000000000000000 19.0049999999999990 44.8649999999999949
  1.3574999999999999 20.3624999999999972 46.2224999999999966
  2.7149999999999999 16.2899999999999991 44.8649999999999949
  4.0724999999999998 17.6475000000000009 46.2224999999999966
  0.0000000000000000 16.2899999999999991 47.5799999999999983
  1.3574999999999999 17.6475000000000009 48.9375000000000000
  2.7149999999999999 19.0049999999999990 47.5799999999999983
  4.0724999999999998 20.3624999999999972 48.9375000000000000
  0.0000000000000000 19.0049999999999990 50.2950000000000017
  1.3574999999999999 20.3624999999999972 51.6524999999999963
  2.7149999999999999 16.2899999999999991 50.2950000000000017
  4.0724999999999998 17.6475000000000009 51.6524999999999963
  0.0000000000000000 16.2899999999999991 53.0099999999999980
  1.3574999999999999 17.6475000000000009 54.3674999999999997
  2.7149999999999999 19.0049999999999990 53.0099999999999980
  4.0724999999999998 20.3624999999999972 54.3674999999999997
  0.0000000000000000 19.0049999999999990 55.7249999999999943
  1.9404033307585160 19.7795966692414815 57.4324999999999974
  2.7149999999999999 16.2899999999999991 55.7249999999999943
  3.4895966692414837 18.2304033307585165 56.7324999999999946
  5.4299999999999997  0.0000000000000000 15.0000000000000000
  6.7874999999999996  1.3574999999999999 16.3575000000000017
  8.1449999999999996  2.7149999999999999 15.0000000000000000
  9.5024999999999995  4.0724999999999998 16.3575000000000017
  5.4299999999999997  2.7149999999999999 17.7149999999999999
  6.7874999999999996  4.0724999999999998 19.0724999999999980
  8.1449999999999996  0.0000000000000000 17.7149999999999999
  9.5024999999999995  1.3574999999999999 19.0724999999999980
  5.4299999999999997  0.0000000000000000 20.4299999999999997
  6.7874999999999996  1.3574999999999999 21.7875000000000014
  8.1449999999999996  2.7149999999999999 20.4299999999999997
  9.5024999999999995  4.0724999999999998 21.7875000000000014
  5.4299999999999997  2.7149999999999999 23.1449999999999996
  6.7874999999999996  4.0724999999999998 24.5024999999999977
  8.1449999999999996  0.0000000000000000 23.1449999999999996
  9.5024999999999995  1.3574999999999999 24.5024999999999977
  5.4299999999999997  0.0000000000000000 25.8599999999999994
  6.7874999999999996  1.3574999999999999 27.2175000000000011
  8.1449999999999996  2.7149999999999999 25.8599999999999994
  9.5024999999999995  4.0724999999999998 27.2175000000000011
  5.4299999999999997  2.7149999999999999 28.5749999999999993
  6.7874999999999996  4.0724999999999998 29.9324999999999974
  8.1449999999999996  0.0000000000000000 28.5749999999999993
  9.5024999999999995  1.3574999999999999 29.9324999999999974
  5.4299999999999997  0.0000000000000000 31.2899999999999991
  6.7874999999999996  1.3574999999999999 32.6475000000000009
  8.1449999999999996  2.7149999999999999 31.2899999999999991
  9.5024999999999995  4.0724999999999998 32.6475000000000009
  5.4299999999999997  2.7149999999999999 34.0049999999999955
  6.7874999999999996  4.0724999999999998 35.3624999999999972
  8.1449999999999996  0.0000000000000000 34.0049999999999955
  9.5024999999999995  1.3574999999999999 35.3624999999999972
  5.4299999999999997  0.0000000000000000 36.7199999999999989
  6.7874999999999996  1.3574999999999999 38.0775000000000006
  8.1449999999999996  2.7149999999999999 36.7199999999999989
  9.5024999999999995  4.0724999999999998 38.0775000000000006
  5.4299999999999997  2.7149999999999999 39.4350000000000023
  6.7874999999999996  4.0724999999999998 40.7924999999999898
  8.1449999999999996  0.0000000000000000 39.4350000000000023
  9.5024999999999995  1.3574999999999999 40.7924999999999898
  5.4299999999999997  0.0000000000000000 42.1499999999999986
  6.7874999999999996  1.3574999999999999 43.5075000000000003
  8.1449999999999996  2.7149999999999999 42.1499999999999986
  9.5024999999999995  4.0724999999999998 43.5075000000000003
  5.4299999999999997  2.7149999999999999 44.8649999999999949
  6.7874999999999996  4.0724999999999998 46.2224999999999966
  8.1449999999999996  0.0000000000000000 44.8649999999999949
  9.5024999999999995  1.3574999999999999 46.2224999999999966
  5.4299999999999997  0.0000000000000000 47.5799999999999983
  6.7874999999999996  1.3574999999999999 48.9375000000000000
  8.1449999999999996  2.7149999999999999 47.5799999999999983
  9.5024999999999995  4.0724999999999998 48.9375000000000000
  5.4299999999999997  2.7149999999999999 50.2950000000000017
  6.7874999999999996  4.0724999999999998 51.6524999999999963
  8.1449999999999996  0.0000000000000000 50.2950000000000017
  9.5024999999999995  1.3574999999999999 51.6524999999999963
  5.4299999999999997  0.0000000000000000 53.0099999999999980
  6.7874999999999996  1.3574999999999999 54.3674999999999997
  8.1449999999999996  2.7149999999999999 53.0099999999999980
  9.5024999999999995  4.0724999999999998 54.3674999999999997
  5.4299999999999997  2.7149999999999999 55.7249999999999943
  7.3704033307585162  3.4895966692414833 57.4324999999999974
  8.1449999999999996  0.0000000000000000 55.7249999999999943
  8.9195966692414821  1.9404033307585165 56.7324999999999946
  5.4299999999999997  5.4299999999999997 15.0000000000000000
  6.7874999999999996  6.7874999999999996 16.3575000000000017
  8.1449999999999996  8.1449999999999996 15.0000000000000000
  9.5024999999999995  9.5024999999999995 16.3575000000000017
  5.4299999999999997  8.1449999999999996 17.7149999999999999
  6.7874999999999996  9.5024999999999995 19.0724999999999980
  8.1449999999999996  5.4299999999999997 17.7149999999999999
  9.5024999999999995  6.7874999999999996 19.0724999999999980
  5.4299999999999997  5.4299999999999997 20.4299999999999997
  6.7874999999999996  6.7874999999999996 21.7875000000000014
  8.1449999999999996  8.1449999999999996 20.4299999999999997
  9.5024999999999995  9.5024999999999995 21.7875000000000014
  5.4299999999999997  8.1449999999999996 23.1449999999999996
  6.7874999999999996  9.5024999999999995 24.5024999999999977
  8.1449999999999996  5.4299999999999997 23.1449999999999996
  9.5024999999999995  6.7874999999999996 24.5024999999999977
  5.4299999999999997  5.4299999999999997 25.8599999999999994
  6.7874999999999996  6.7874999999999996 27.2175000000000011
  8.1449999999999996  8.1449999999999996 25.8599999999999994
  9.5024999999999995  9.5024999999999995 27.2175000000000011
  5.4299999999999997  8.1449999999999996 28.5749999999999993
  6.7874999999999996  9.5024999999999995 29.9324999999999974
  8.1449999999999996  5.4299999999999997 28.5749999999999993
  9.5024999999999995  6.7874999999999996 29.9324999999999974
  5.4299999999999997  5.4299999999999997 31.2899999999999991
  6.7874999999999996  6.7874999999999996 32.6475000000000009
  8.1449999999999996  8.1449999999999996 31.2899999999999991
  9.5024999999999995  9.5024999999999995 32.6475000000000009
  5.4299999999999997  8.1449999999999996 34.0049999999999955
  6.7874999999999996  9.5024999999999995 35.3624999999999972
  8.1449999999999996  5.4299999999999997 34.0049999999999955
  9.5024999999999995  6.7874999999999996 35.3624999999999972
  5.4299999999999997  5.4299999999999997 36.7199999999999989
  6.7874999999999996  6.7874999999999996 38.0775000000000006
  8.1449999999999996  8.1449999999999996 36.7199999999999989
  9.5024999999999995  9.5024999999999995 38.0775000000000006
  5.4299999999999997  8.1449999999999996 39.4350000000000023
  6.7874999999999996  9.5024999999999995 40.7924999999999898
  8.1449999999999996  5.4299999999999997 39.4350000000000023
  9.5024999999999995  6.7874999999999996 40.7924999999999898
  5.4299999999999997  5.4299999999999997 42.1499999999999986
  6.7874999999999996  6.7874999999999996 43.5075000000000003
  8.1449999999999996  8.1449999999999996 42.1499999999999986
  9.5024999999999995  9.5024999999999995 43.5075000000000003
  5.4299999999999997  8.1449999999999996 44.8649999999999949
  6.7874999999999996  9.5024999999999995 46.2224999999999966
  8.1449999999999996  5.4299999999999997 44.8649999999999949
  9.5024999999999995  6.7874999999999996 46.2224999999999966
  5.4299999999999997  5.4299999999999997 47.5799999999999983
  6.7874999999999996  6.7874999999999996 48.9375000000000000
  8.1449999999999996  8.1449999999999996 47.5799999999999983
  9.5024999999999995  9.5024999999999995 48.9375000000000000
  5.4299999999999997  8.1449999999999996 50.2950000000000017
  6.7874999999999996  9.5024999999999995 51.6524999999999963
  8.1449999999999996  5.4299999999999997 50.2950000000000017
  9.5024999999999995  6.7874999999999996 51.6524999999999963
  5.4299999999999997  5.4299999999999997 53.0099999999999980
  6.7874999999999996  6.7874999999999996 54.3674999999999997
  8.1449999999999996  8.1449999999999996 53.0099999999999980
  9.5024999999999995  9.5024999999999995 54.3674999999999997
  5.4299999999999997  8.1449999999999996 55.7249999999999943
  7.3704033307585162  8.9195966692414821 57.4324999999999974
  8.1449999999999996  5.4299999999999997 55.7249999999999943
  8.9195966692414821  7.3704033307585162 56.7324999999999946
  5.4299999999999997 10.8599999999999994 15.0000000000000000
  6.7874999999999996 12.2174999999999994 16.3575000000000017
  8.1449999999999996 13.5749999999999993 15.0000000000000000
  9.5024999999999995 14.9324999999999992 16.3575000000000017
  5.4299999999999997 13.5749999999999993 17.7149999999999999
  6.7874999999999996 14.9324999999999992 19.0724999999999980
  8.1449999999999996 10.8599999999999994 17.7149999999999999
  9.5024999999999995 12.2174999999999994 19.0724999999999980
  5.4299999999999997 10.8599999999999994 20.4299999999999997
  6.7874999999999996 12.2174999999999994 21.7875000000000014
  8.1449999999999996 13.5749999999999993 20.4299999999999997
  9.5024999999999995 14.9324999999999992 21.7875000000000014
  5.4299999999999997 13.5749999999999993 23.1449999999999996
  6.7874999999999996 14.9324999999999992 24.5024999999999977
  8.1449999999999996 10.8599999999999994 23.1449999999999996
  9.5024999999999995 12.2174999999999994 24.5024999999999977
  5.4299999999999997 10.8599999999999994 25.8599999999999994
  6.7874999999999996 12.2174999999999994 27.2175000000000011
  8.1449999999999996 13.5749999999999993 25.8599999999999994
  9.5024999999999995 14.9324999999999992 27.2175000000000011
  5.4299999999999997 13.5749999999999993 28.5749999999999993
  6.7874999999999996 14.9324999999999992 29.9324999999999974
  8.1449999999999996 10.8599999999999994 28.5749999999999993
  9.5024999999999995 12.2174999999999994 29.9324999999999974
  5.4299999999999997 10.8599999999999994 31.2899999999999991
  6.7874999999999996 12.2174999999999994 32.6475000000000009
  8.1449999999999996 13.5749999999999993 31.2899999999999991
  9.5024999999999995 14.9324999999999992 32.6475000000000009
  5.4299999999999997 13.5749999999999993 34.0049999999999955
  6.7874999999999996 14.9324999999999992 35.3624999999999972
  8.1449999999999996 10.8599999999999994 34.0049999999999955
  9.5024999999999995 12.2174999999999994 35.3624999999999972
  5.4299999999999997 10.8599999999999994 36.7199999999999989
  6.7874999999999996 12.2174999999999994 38.0775000000000006
  8.1449999999999996 13.5749999999999993 36.7199999999999989
  9.5024999999999995 14.9324999999999992 38.0775000000000006
  5.4299999999999997 13.5749999999999993 39.4350000000000023
  6.7874999999999996 14.9324999999999992 40.7924999999999898
  8.1449999999999996 10.8599999999999994 39.4350000000000023
  9.5024999999999995 12.2174999999999994 40.7924999999999898
  5.4299999999999997 10.8599999999999994 42.1499999999999986
  6.7874999999999996 12.2174999999999994 43.5075000000000003
  8.1449999999999996 13.5749999999999993 42.1499999999999986
  9.5024999999999995 14.9324999999999992 43.5075000000000003
  5.4299999999999997 13.5749999999999993 44.8649999999999949
  6.7874999999999996 14.9324999999999992 46.2224999999999966
  8.1449999999999996 10.8599999999999994 44.8649999999999949
  9.5024999999999995 12.2174999999999994 46.2224999999999966
  5.4299999999999997 10.8599999999999994 47.5799999999999983
  6.7874999999999996 12.2174999999999994 48.9375000000000000
  8.1449999999999996 13.5749999999999993 47.5799999999999983
  9.5024999999999995 14.9324999999999992 48.9375000000000000
  5.4299999999999997 13.5749999999999993 50.2950000000000017
  6.7874999999999996 14.9324999999999992 51.6524999999999963
  8.1449999999999996 10.8599999999999994 50.2950000000000017
  9.5024999999999995 12.2174999999999994 51.6524999999999963
  5.4299999999999997 10.8599999999999994 53.0099999999999980
  6.7874999999999996 12.2174999999999994 54.3674999999999997
  8.1449999999999996 13.5749999999999993 53.0099999999999980
  9.5024999999999995 14.9324999999999992 54.3674999999999997
  5.4299999999999997 13.5749999999999993 55.7249999999999943
  7.3704033307585162 14.3495966692414818 57.4324999999999974
  8.1449999999999996 10.8599999999999994 55.7249999999999943
  8.9195966692414821 12.8004033307585168 56.7324999999999946
  5.4299999999999997 16.2899999999999991 15.0000000000000000
  6.7874999999999996 17.6475000000000009 16.3575000000000017
  8.1449999999999996 19.0049999999999990 15.0000000000000000
  9.5024999999999995 20.3624999999999972 16.3575000000000017
  5.4299999999999997 19.0049999999999990 17.7149999999999999
  6.7874999999999996 20.3624999999999972 19.0724999999999980
  8.1449999999999996 16.2899999999999991 17.7149999999999999
  9.5024999999999995 17.6475000000000009 19.0724999999999980
  5.4299999999999997 16.2899999999999991 20.4299999999999997
  6.7874999999999996 17.6475000000000009 21.7875000000000014
  8.1449999999999996 19.0049999999999990 20.4299999999999997
  9.5024999999999995 20.3624999999999972 21.7875000000000014
  5.4299999999999997 19.0049999999999990 23.1449999999999996
  6.7874999999999996 20.3624999999999972 24.5024999999999977
  8.1449999999999996 16.2899999999999991 23.1449999999999996
  9.5024999999999995 17.6475000000000009 24.5024999999999977
  5.4299999999999997 16.2899999999999991 25.8599999999999994
  6.7874999999999996 17.6475000000000009 27.2175000000000011
  8.1449999999999996 19.0049999999999990 25.8599999999999994
  9.5024999999999995 20.3624999999999972 27.2175000000000011
  5.4299999999999997 19.0049999999999990 28.5749999999999993
  6.7874999999999996 20.3624999999999972 29.9324999999999974
  8.1449999999999996 16.2899999999999991 28.5749999999999993
  9.5024999999999995 17.6475000000000009 29.9324999999999974
  5.4299999999999997 16.2899999999999991 31.2899999999999991
  6.7874999999999996 17.6475000000000009 32.6475000000000009
  8.1449999999999996 19.0049999999999990 31.2899999999999991
  9.5024999999999995 20.3624999999999972 32.6475000000000009
  5.4299999999999997 19.0049999999999990 34.0049999999999955
  6.7874999999999996 20.3624999999999972 35.3624999999999972
  8.1449999999999996 16.2899999999999991 34.0049999999999955
  9.5024999999999995 17.6475000000000009 35.3624999999999972
  5.4299999999999997 16.2899999999999991 36.7199999999999989
  6.7874999999999996 17.6475000000000009 38.0775000000000006
  8.1449999999999996 19.0049999999999990 36.7199999999999989
  9.5024999999999995 20.3624999999999972 38.0775000000000006
  5.4299999999999997 19.0049999999999990 39.4350000000000023
  6.7874999999999996 20.3624999999999972 40.7924999999999898
  8.1449999999999996 16.2899999999999991 39.4350000000000023